Name: (-)-cis-Isopiperitenol
InChIKey: OLAKPNFIICOONC-NXEZZACHSA-N
Synon: (1R,6R)-3-Methyl-6-(prop-1-en-2-yl)cyclohex-2-enol
Synon: 2-Cyclohexen-1-ol, 3-methyl-6-(1-methylethenyl)-, (1R,6R)-
Synon: 2-Cyclohexen-1-ol, 3-methyl-6-(1-methylethenyl)-, (1R-cis)-
Retention_index: SemiStdNP=1228 StdNP=1203/8/2 StdPolar=1742/3/4
Formula: C10H16O
MW: 152
ExactMass: 152.120115
CAS#: 96555-02-1;  NIST#: 414182
DB#: 54010
Comments: NIST Mass Spectrometry Data Center
Num Peaks: 92
26 1; 27 21; 28 5; 29 20; 30 1; 
31 4; 37 1; 38 4; 39 90; 40 18; 
41 145; 42 13; 43 35; 44 6; 45 2; 
50 8; 51 28; 52 11; 53 64; 54 12; 
55 76; 56 123; 57 13; 58 3; 59 10; 
60 2; 61 2; 62 4; 63 11; 64 4; 
65 36; 66 13; 67 78; 68 34; 69 146; 
70 33; 71 8; 72 1; 74 2; 75 2; 
76 1; 77 64; 78 15; 79 67; 80 36; 
81 75; 82 29; 83 471; 84 999; 85 57; 
86 4; 87 1; 89 3; 91 67; 92 27; 
93 33; 94 53; 95 34; 96 10; 97 9; 
98 1; 102 2; 103 8; 104 3; 105 24; 
106 19; 107 27; 108 108; 109 112; 110 15; 
115 9; 116 2; 117 9; 118 1; 119 39; 
120 5; 121 89; 122 10; 123 12; 124 12; 
125 1; 128 1; 132 1; 133 2; 134 29; 
135 6; 136 1; 137 45; 138 4; 151 1; 
152 36; 153 4; 

