Name: 1,8-cineole
Formula: C10H18O
MW: 154
ExactMass: 154.135765
DB#: 11
Comments: rt=2.398
Num Peaks: 163
39 148; 40 23; 41 645; 42 46; 43 709; 
44 32; 45 23; 46 1; 50 19; 51 96; 
52 21; 53 294; 54 116; 55 725; 56 205; 
57 59; 58 270; 59 356; 60 16; 61 47; 
62 6; 63 18; 64 4; 65 243; 66 79; 
67 820; 68 449; 69 892; 70 167; 71 857; 
72 134; 73 21; 74 3; 75 3; 76 5; 
77 461; 78 81; 79 646; 80 145; 81 989; 
82 387; 83 553; 84 752; 85 137; 86 10; 
87 1; 88 2; 89 6; 90 2; 91 397; 
92 125; 93 999; 94 422; 95 658; 96 603; 
97 239; 98 69; 99 29; 100 2; 101 1; 
102 2; 103 13; 104 5; 105 57; 106 85; 
107 576; 108 810; 109 217; 110 59; 111 839; 
112 178; 113 15; 114 1; 115 11; 116 4; 
117 12; 118 6; 119 20; 120 9; 121 547; 
122 65; 123 20; 124 4; 125 665; 126 133; 
127 12; 128 5; 129 5; 130 3; 131 5; 
132 3; 133 4; 134 3; 135 4; 136 493; 
137 63; 138 7; 139 875; 140 252; 141 24; 
142 2; 143 3; 144 3; 145 2; 146 2; 
147 2; 148 1; 149 1; 150 1; 151 1; 
152 1; 153 1; 154 636; 155 100; 156 10; 
157 2; 158 2; 159 1; 160 1; 161 2; 
162 1; 165 2; 166 1; 167 2; 168 1; 
169 1; 171 1; 172 1; 175 1; 179 1; 
180 1; 181 1; 182 1; 183 1; 184 1; 
185 1; 186 1; 191 2; 193 2; 194 1; 
195 1; 207 14; 208 3; 209 2; 249 1; 
251 1; 253 1; 265 1; 267 3; 268 1; 
271 1; 281 8; 282 2; 283 2; 289 1; 
325 1; 327 1; 341 4; 342 2; 343 1; 
345 1; 355 1; 429 1; 

