Name: 4-Vinylphenol
Formula: C8H8O
MW: 120
ExactMass: 120.0575147
CAS#: 2628-17-3
DB#: 29
Comments: rt=2.779
Num Peaks: 84
37 4; 38 12; 39 218; 40 24; 41 9; 
42 2; 43 4; 44 2; 45 87; 46 73; 
47 5; 49 16; 50 161; 51 262; 52 63; 
53 98; 54 6; 55 117; 56 4; 57 2; 
58 1; 59 109; 60 71; 61 126; 62 274; 
63 507; 64 122; 65 758; 66 307; 67 20; 
68 22; 69 3; 72 1; 73 25; 74 164; 
75 183; 76 76; 77 260; 78 140; 79 35; 
80 3; 81 60; 82 3; 84 6; 85 26; 
86 47; 87 35; 88 6; 89 453; 90 141; 
91 976; 92 673; 93 73; 94 632; 95 71; 
96 4; 97 6; 98 32; 99 9; 100 2; 
101 63; 102 84; 103 133; 104 13; 105 287; 
106 25; 107 9; 108 1; 117 5; 118 165; 
119 869; 120 999; 121 650; 122 72; 123 3; 
128 1; 133 1; 191 1; 193 1; 207 7; 
208 1; 209 1; 267 1; 281 1; 

