Name: 4-Vinylguaiacol
Formula: C9H10O2
MW: 150
ExactMass: 150.06808
DB#: 30
Comments: rt=3,126
Num Peaks: 88
38 3; 39 30; 40 1; 41 1; 43 1; 
44 1; 45 1; 49 4; 50 59; 51 168; 
52 68; 53 39; 54 3; 55 37; 56 1; 
57 3; 60 1; 61 16; 62 52; 63 123; 
64 21; 65 101; 66 8; 67 7; 68 2; 
69 8; 71 1; 73 4; 74 27; 75 24; 
76 21; 77 689; 78 186; 79 379; 80 30; 
81 23; 82 1; 85 3; 86 8; 87 7; 
88 3; 89 151; 90 27; 91 114; 92 11; 
93 15; 94 3; 95 2; 98 3; 101 3; 
102 13; 103 37; 104 5; 105 45; 106 15; 
107 803; 108 120; 109 9; 117 13; 118 16; 
119 11; 120 9; 121 20; 122 2; 124 2; 
131 2; 132 1; 133 12; 134 11; 135 965; 
136 221; 137 23; 138 1; 147 13; 148 8; 
149 17; 150 999; 151 266; 152 27; 153 1; 
191 1; 193 1; 207 6; 208 1; 209 1; 
267 2; 281 1; 355 1; 

