Name: alpha-pinene
Formula: C10H16
MW: 136
ExactMass: 136.1252
DB#: 3
Comments: rt=2.02
Num Peaks: 72
39 11; 40 1; 41 12; 42 2; 43 5; 
45 2; 50 5; 51 56; 52 8; 53 21; 
54 2; 55 18; 56 2; 57 1; 58 1; 
61 9; 62 2; 63 12; 64 2; 65 80; 
66 12; 67 107; 68 15; 69 4; 70 4; 
73 3; 74 2; 75 2; 76 3; 77 555; 
78 68; 79 405; 80 107; 81 24; 82 3; 
83 1; 87 1; 89 6; 90 1; 91 876; 
92 673; 93 999; 94 141; 95 13; 96 1; 
102 4; 103 47; 104 9; 105 202; 106 30; 
107 68; 108 15; 109 3; 115 14; 116 3; 
117 11; 118 1; 119 38; 120 6; 121 170; 
122 17; 123 1; 135 1; 136 43; 137 5; 
207 2; 267 4; 268 1; 281 1; 341 1; 
355 3; 356 1; 

