Name: beta-pinene
Formula: C10H16
MW: 136
ExactMass: 136.1252
DB#: 5
Comments: rt=2.198
Num Peaks: 145
38 1; 39 132; 40 13; 41 679; 42 47; 
43 30; 44 8; 45 9; 49 1; 50 45; 
51 295; 52 52; 53 172; 54 16; 55 141; 
56 15; 57 13; 58 6; 60 4; 61 57; 
62 20; 63 71; 64 12; 65 400; 66 91; 
67 593; 68 83; 69 517; 70 42; 71 7; 
73 7; 74 9; 75 8; 76 12; 77 889; 
78 384; 79 838; 80 640; 81 180; 82 48; 
83 11; 84 3; 85 3; 86 2; 87 6; 
88 2; 89 28; 90 6; 91 927; 92 655; 
93 999; 94 574; 95 105; 96 13; 97 7; 
98 3; 101 2; 102 14; 103 91; 104 25; 
105 305; 106 55; 107 465; 108 154; 109 19; 
110 3; 111 3; 112 1; 114 1; 115 51; 
116 12; 117 32; 118 8; 119 56; 120 12; 
121 643; 122 104; 123 7; 124 1; 125 1; 
127 3; 128 6; 129 5; 130 2; 131 4; 
132 3; 133 4; 134 4; 135 13; 136 259; 
137 29; 138 2; 141 2; 142 2; 143 2; 
144 2; 145 2; 146 1; 147 2; 148 1; 
149 1; 152 1; 153 1; 154 1; 155 1; 
156 1; 157 1; 158 1; 159 1; 161 1; 
163 1; 165 1; 166 1; 167 1; 168 1; 
169 1; 170 1; 171 1; 173 1; 175 1; 
178 1; 179 1; 180 1; 181 1; 182 1; 
183 1; 185 1; 186 1; 191 2; 193 1; 
195 1; 205 1; 207 11; 208 2; 209 1; 
249 1; 265 2; 267 2; 271 1; 281 7; 
282 2; 283 1; 341 1; 345 1; 355 1; 

