Name: 1,3-Butadiene
Formula: C4H6
MW: 54
ExactMass: 54.04695
DB#: 35
Comments: rt=1,568
Num Peaks: 36
27 21; 28 2; 37 1; 39 145; 40 6; 
41 2; 44 3; 48 9; 49 57; 50 255; 
51 240; 52 87; 53 648; 54 999; 55 44; 
56 5; 57 3; 65 2; 67 2; 69 1; 
70 1; 77 5; 78 1; 79 2; 80 1; 
83 1; 91 4; 92 1; 103 1; 105 2; 
106 1; 107 1; 130 1; 148 1; 207 1; 
208 1; 

