Name: Camphene
Formula: C10H16
MW: 136
ExactMass: 136.1252
DB#: 4
Comments: rt=2.095
Num Peaks: 148
38 1; 39 95; 40 18; 41 231; 42 23; 
43 30; 44 5; 45 8; 49 1; 50 29; 
51 209; 52 35; 53 171; 54 16; 55 176; 
56 16; 57 13; 58 7; 59 2; 60 5; 
61 63; 62 17; 63 54; 64 10; 65 405; 
66 227; 67 762; 68 231; 69 83; 70 32; 
71 9; 73 8; 74 7; 75 7; 76 9; 
77 792; 78 251; 79 879; 80 391; 81 236; 
82 81; 83 15; 84 3; 85 3; 86 2; 
87 6; 88 2; 89 24; 90 5; 91 882; 
92 595; 93 999; 94 669; 95 539; 96 52; 
97 8; 98 3; 99 1; 101 1; 102 12; 
103 100; 104 22; 105 470; 106 99; 107 716; 
108 253; 109 22; 110 2; 111 3; 112 1; 
114 1; 115 37; 116 10; 117 26; 118 5; 
119 62; 120 12; 121 883; 122 278; 123 15; 
124 2; 125 1; 126 1; 127 1; 128 5; 
129 4; 130 2; 131 3; 132 2; 133 3; 
134 2; 135 20; 136 205; 137 24; 138 2; 
141 2; 142 2; 143 2; 144 2; 145 2; 
146 1; 147 2; 148 1; 149 1; 152 1; 
153 1; 154 1; 155 1; 156 1; 157 2; 
158 1; 159 1; 160 1; 161 1; 163 1; 
165 1; 166 1; 167 1; 168 1; 169 1; 
170 1; 171 1; 173 1; 178 1; 179 1; 
180 1; 181 1; 182 1; 191 2; 193 1; 
194 1; 197 1; 207 10; 208 2; 209 1; 
249 1; 251 1; 265 2; 267 2; 271 1; 
281 7; 282 2; 283 1; 327 1; 341 2; 
343 1; 345 1; 355 1; 

