Name: (-)-Carvone
InChIKey: ULDHMXUKGWMISQ-UHFFFAOYSA-N
Synon: 2-Cyclohexen-1-one, 2-methyl-5-(1-methylethenyl)-, (R)-
Synon: p-Mentha-6,8-dien-2-one, (R)-(-)-
Synon: (-)-(R)-Carvone
Synon: (-)-p-Mentha-6,8-dien-2-one
Synon: (R)-(-)-Carvone
Synon: L(-)-Carvone
Synon: Levo-carvone
Synon: l-6,8(9)-p-Menthadien-2-one
Synon: l-1-Methyl-4-isopropenyl-6-cyclohexen-2-one
Formula: C10H14O
MW: 150
ExactMass: 150.1044655
CAS#: 6485-40-1;  NIST#: 114678
DB#: 51136
Comments: NIST Mass Spectrometry Data Center, 1990.
Num Peaks: 55
14 8; 26 9; 27 81; 28 5; 29 20; 
39 318; 40 55; 41 175; 42 28; 43 18; 
50 41; 51 89; 52 50; 53 203; 54 457; 
55 57; 58 76; 62 11; 63 29; 64 8; 
65 73; 66 29; 67 94; 68 24; 69 34; 
77 127; 78 36; 79 166; 80 60; 81 8; 
82 999; 83 50; 91 148; 92 65; 93 312; 
94 66; 95 34; 103 10; 105 43; 106 127; 
107 190; 108 258; 109 34; 115 13; 117 11; 
119 10; 121 16; 122 19; 132 8; 133 9; 
135 82; 136 7; 148 11; 150 79; 151 9; 

