Name: fenchol
Formula: C10H18O
MW: 154
ExactMass: 154.135765
DB#: 15
Comments: rt=2.711
Num Peaks: 154
39 92; 40 9; 41 583; 42 54; 43 398; 
44 17; 45 17; 46 1; 50 14; 51 85; 
52 19; 53 220; 54 63; 55 548; 56 151; 
57 525; 58 31; 59 30; 60 4; 61 27; 
62 5; 63 16; 64 3; 65 246; 66 72; 
67 735; 68 114; 69 690; 70 116; 71 435; 
72 432; 73 50; 74 4; 75 3; 76 3; 
77 496; 78 75; 79 809; 80 945; 81 999; 
82 539; 83 409; 84 341; 85 119; 86 19; 
87 3; 88 1; 89 7; 90 3; 91 540; 
92 259; 93 692; 94 139; 95 338; 96 184; 
97 239; 98 183; 99 41; 100 10; 101 1; 
102 3; 103 28; 104 7; 105 230; 106 36; 
107 528; 108 106; 109 57; 110 30; 111 583; 
112 75; 113 7; 115 12; 116 3; 117 11; 
118 4; 119 30; 120 7; 121 554; 122 73; 
123 277; 124 31; 125 40; 126 7; 127 2; 
128 4; 129 4; 130 3; 131 4; 132 2; 
133 5; 134 4; 135 8; 136 48; 137 15; 
138 2; 139 144; 140 17; 141 2; 142 2; 
143 2; 144 2; 145 2; 146 1; 147 1; 
148 1; 149 1; 150 1; 152 12; 153 4; 
154 12; 155 2; 156 1; 157 1; 158 1; 
159 1; 160 1; 161 1; 165 1; 166 1; 
167 1; 168 1; 169 1; 170 1; 171 1; 
172 1; 175 1; 179 1; 181 1; 182 1; 
183 1; 185 1; 191 2; 193 1; 194 1; 
207 12; 208 2; 209 1; 221 1; 249 1; 
265 1; 267 3; 268 1; 271 1; 281 7; 
282 1; 283 1; 325 1; 327 1; 341 3; 
343 1; 345 1; 355 2; 429 1; 

