Name: gamma-terpinene
Formula: C10H16
MW: 136
ExactMass: 136.1252
DB#: 12
Comments: rt=2.381
Num Peaks: 137
39 64; 40 6; 41 92; 42 8; 43 20; 
44 4; 45 6; 49 1; 50 23; 51 179; 
52 24; 53 125; 54 10; 55 95; 56 10; 
57 10; 58 3; 59 1; 60 3; 61 31; 
62 13; 63 42; 64 6; 65 265; 66 49; 
67 340; 68 39; 69 20; 70 9; 71 6; 
73 6; 74 7; 75 6; 76 8; 77 900; 
78 226; 79 900; 80 761; 81 187; 82 15; 
83 7; 84 2; 85 3; 86 2; 87 4; 
88 1; 89 18; 90 3; 91 999; 92 684; 
93 986; 94 345; 95 33; 96 6; 97 5; 
98 2; 99 1; 101 1; 102 12; 103 181; 
104 28; 105 577; 106 117; 107 185; 108 35; 
109 12; 110 3; 111 2; 115 43; 116 10; 
117 39; 118 8; 119 147; 120 25; 121 383; 
122 35; 123 3; 124 1; 127 2; 128 5; 
129 4; 130 3; 131 4; 132 2; 133 4; 
134 3; 135 5; 136 30; 137 4; 138 1; 
139 1; 141 2; 142 2; 143 3; 144 2; 
145 2; 146 2; 147 1; 148 1; 149 1; 
152 1; 153 1; 154 1; 155 1; 156 1; 
157 1; 158 1; 159 1; 160 1; 165 1; 
167 1; 168 1; 169 1; 171 1; 181 1; 
182 1; 183 1; 185 1; 191 2; 193 1; 
207 10; 208 2; 209 1; 249 1; 265 1; 
267 2; 271 1; 281 6; 282 1; 325 1; 
327 1; 341 2; 342 1; 343 1; 345 1; 
355 1; 429 1; 

