Name: Geraniol
Related_CAS#: 8007-13-4
InChIKey: GLZPCOQZEFWAFX-JXMROGBWSA-N
Synon: 2,6-Octadien-1-ol, 3,7-dimethyl-, (E)-
Synon: trans-Geraniol
Synon: Guaniol
Synon: Lemonol
Synon: trans-3,7-Dimethyl-2,6-octadien-1-ol
Synon: Geraniol alcohol
Synon: Geraniol extra
Synon: Geranyl alcohol
Retention_index: SemiStdNP=1255/3/343 StdNP=1237/4/256 StdPolar=1847/10/341
Formula: C10H18O
MW: 154
ExactMass: 154.135765
CAS#: 106-24-1;  NIST#: 333794
DB#: 34278
Comments: NIST Mass Spectrometry Data Center
Num Peaks: 91
15 2; 19 1; 26 2; 27 50; 28 7; 
29 66; 30 2; 31 18; 37 1; 38 6; 
39 139; 40 29; 41 600; 42 38; 43 60; 
44 7; 45 5; 50 10; 51 30; 52 14; 
53 112; 54 16; 55 96; 56 21; 57 47; 
58 3; 59 27; 60 1; 61 1; 62 3; 
63 8; 64 2; 65 30; 66 11; 67 156; 
68 214; 69 999; 70 86; 71 70; 72 10; 
74 1; 75 1; 76 1; 77 36; 78 7; 
79 40; 80 58; 81 62; 82 12; 83 50; 
84 90; 85 24; 86 4; 89 1; 91 35; 
92 33; 93 143; 94 26; 95 27; 96 32; 
97 22; 98 15; 99 2; 103 3; 104 1; 
105 11; 106 3; 107 24; 108 8; 109 11; 
110 16; 111 78; 112 15; 113 1; 115 1; 
117 1; 119 3; 120 2; 121 70; 122 8; 
123 138; 124 14; 125 2; 126 1; 135 1; 
136 28; 137 4; 139 31; 140 3; 154 12; 
155 1; 

