Name: geraniol
Formula: C10H18O
MW: 154
ExactMass: 154.135765
DB#: 17
Comments: rt=3.067
Num Peaks: 156
39 78; 40 12; 41 999; 42 74; 43 61; 
44 5; 45 4; 50 11; 51 32; 52 9; 
53 160; 54 15; 55 206; 56 77; 57 52; 
58 3; 59 64; 60 3; 61 19; 62 3; 
63 11; 64 2; 65 112; 66 23; 67 752; 
68 293; 69 895; 70 107; 71 166; 72 28; 
73 7; 74 2; 75 2; 76 3; 77 233; 
78 30; 79 284; 80 270; 81 409; 82 43; 
83 251; 84 291; 85 62; 86 5; 87 3; 
88 1; 89 5; 90 1; 91 316; 92 160; 
93 662; 94 132; 95 142; 96 63; 97 62; 
98 73; 99 6; 101 1; 102 2; 103 16; 
104 5; 105 70; 106 14; 107 99; 108 28; 
109 34; 110 27; 111 213; 112 49; 113 3; 
115 11; 116 3; 117 10; 118 4; 119 22; 
120 7; 121 321; 122 32; 123 424; 124 39; 
125 6; 126 3; 127 1; 128 4; 129 4; 
130 3; 131 3; 132 2; 133 4; 134 3; 
135 4; 136 30; 137 14; 138 2; 139 125; 
140 13; 141 2; 142 2; 143 2; 144 2; 
145 2; 146 2; 147 2; 148 1; 149 1; 
152 2; 153 1; 154 4; 155 1; 156 1; 
157 1; 158 1; 159 1; 160 1; 161 1; 
163 1; 165 1; 167 1; 168 1; 169 1; 
170 1; 171 1; 177 1; 179 1; 180 1; 
181 1; 182 1; 183 1; 184 1; 185 1; 
191 2; 193 1; 194 1; 199 1; 205 1; 
207 13; 208 3; 209 1; 213 1; 220 1; 
249 1; 251 1; 265 1; 267 2; 271 1; 
281 6; 282 1; 283 1; 325 1; 327 1; 
341 2; 342 1; 345 1; 355 1; 363 1; 
419 1; 

