Name: +EI geranyl-acetate
Formula: C12H20O2
MW: 196
ExactMass: 196.14633
DB#: 20
Num Peaks: 117
37 1; 38 2; 39 220; 40 60; 41 947; 
42 186; 43 438; 44 26; 45 7; 49 2; 
50 42; 51 166; 52 44; 53 525; 54 55; 
55 252; 56 86; 57 145; 58 10; 59 27; 
60 9; 61 27; 62 12; 63 38; 64 5; 
65 375; 66 113; 67 935; 68 854; 69 999; 
70 345; 71 178; 72 37; 73 3; 74 5; 
75 5; 76 5; 77 536; 78 112; 79 643; 
80 789; 81 596; 82 104; 83 217; 84 370; 
85 618; 86 95; 87 6; 89 10; 90 2; 
91 645; 92 624; 93 908; 94 577; 95 318; 
96 46; 97 70; 98 56; 99 19; 100 1; 
101 7; 102 6; 103 52; 104 14; 105 294; 
106 64; 107 530; 108 241; 109 119; 110 23; 
111 84; 112 30; 113 3; 114 3; 115 23; 
116 5; 117 27; 118 5; 119 89; 120 23; 
121 838; 122 268; 123 267; 124 31; 125 6; 
126 6; 127 60; 128 6; 129 2; 130 1; 
131 2; 132 1; 133 5; 134 5; 135 23; 
136 536; 137 123; 138 32; 139 74; 140 8; 
141 1; 143 1; 144 1; 145 1; 147 1; 
151 1; 153 5; 154 116; 155 14; 156 1; 
157 2; 158 1; 160 1; 196 1; 207 3; 
208 1; 281 1; 

