Name: Isobutanol
Formula: C4H10O
MW: 74
ExactMass: 74.073165
DB#: 37
Comments: rt=2.404
Num Peaks: 39
27 42; 28 6; 29 119; 30 2; 31 109; 
32 1; 33 884; 34 11; 35 2; 39 43; 
40 11; 41 653; 42 198; 43 985; 44 60; 
45 75; 46 2; 49 9; 50 51; 51 48; 
52 9; 53 107; 54 15; 55 743; 56 999; 
57 301; 58 26; 59 156; 60 6; 61 17; 
66 1; 67 1; 69 9; 70 9; 71 12; 
72 15; 73 198; 74 106; 75 4; 

