Name: isobutanal_tof
Formula: C4H8O
MW: 72
ExactMass: 72.0575147
DB#: 36
Comments: rt=1.984
Num Peaks: 26
27 16; 28 7; 29 25; 39 7; 41 124; 
42 16; 43 819; 44 42; 45 4; 49 5; 
50 16; 51 9; 52 2; 53 16; 54 199; 
55 39; 56 7; 57 999; 58 34; 59 2; 
69 8; 70 3; 71 34; 72 797; 73 42; 
74 2; 

