Name: (+)-Isomenthol
InChIKey: NOOLISFMXDJSKH-UHFFFAOYSA-N
Synon: 2-Isopropyl-5-methylcyclohexanol  #
Formula: C10H20O
MW: 156
ExactMass: 156.151415
NIST#: 152083
DB#: 38979
Comments: Chemical Concepts
Num Peaks: 89
25 1; 26 11; 27 186; 28 12; 29 156; 
30 4; 31 46; 37 1; 38 5; 39 139; 
40 26; 41 441; 42 65; 43 250; 44 42; 
45 28; 46 1; 50 5; 51 14; 52 6; 
53 67; 54 39; 55 423; 56 203; 57 184; 
58 25; 59 15; 60 1; 61 0; 62 1; 
63 3; 64 0; 65 12; 66 8; 67 300; 
68 121; 69 331; 70 112; 71 999; 72 54; 
73 13; 74 1; 77 18; 78 2; 79 43; 
80 100; 81 643; 82 328; 83 106; 84 32; 
85 82; 86 39; 87 6; 88 0; 91 11; 
92 2; 93 36; 94 51; 95 584; 96 162; 
97 40; 98 2; 99 33; 100 6; 101 1; 
105 1; 107 1; 108 0; 109 94; 110 45; 
111 12; 112 18; 113 12; 114 1; 115 0; 
119 0; 121 2; 122 0; 123 233; 124 24; 
125 2; 136 1; 137 4; 138 131; 139 23; 
140 1; 141 3; 155 1; 156 2; 

