Name: isomenthol
Formula: C10H20O
MW: 156
ExactMass: 156.151415
DB#: 27
Num Peaks: 82
39 36; 40 4; 41 230; 42 25; 43 138; 
44 14; 45 6; 50 8; 51 28; 52 9; 
53 93; 54 24; 55 317; 56 81; 57 106; 
58 20; 59 8; 62 1; 63 6; 65 58; 
66 14; 67 679; 68 94; 69 181; 70 47; 
71 778; 72 39; 73 9; 75 1; 76 1; 
77 92; 78 16; 79 195; 80 136; 81 999; 
82 270; 83 63; 84 19; 85 79; 86 11; 
87 1; 91 53; 92 7; 93 70; 94 85; 
95 762; 96 134; 97 26; 98 2; 99 23; 
100 1; 103 1; 105 3; 106 1; 107 6; 
108 2; 109 127; 110 43; 111 8; 112 9; 
113 9; 114 1; 115 1; 117 1; 119 1; 
121 6; 123 268; 124 27; 125 1; 135 1; 
136 1; 137 3; 138 48; 139 7; 141 1; 
154 1; 155 1; 193 1; 207 4; 208 1; 
281 1; 327 1; 

