Name: isomenthone
Formula: C10H18O
MW: 154
ExactMass: 154.135765
DB#: 24
Num Peaks: 114
39 47; 40 10; 41 273; 42 28; 43 66; 
44 58; 45 3; 49 2; 50 14; 51 36; 
52 21; 53 80; 54 23; 55 375; 56 144; 
57 26; 58 15; 59 4; 61 2; 62 3; 
63 10; 64 1; 65 48; 66 14; 67 190; 
68 37; 69 332; 70 224; 71 43; 72 7; 
73 10; 74 2; 75 5; 76 2; 77 77; 
78 18; 79 146; 80 18; 81 72; 82 13; 
83 244; 84 419; 85 35; 86 3; 89 2; 
91 45; 92 10; 93 116; 94 67; 95 309; 
96 28; 97 644; 98 82; 99 5; 102 1; 
103 3; 104 2; 105 15; 106 2; 107 21; 
108 4; 109 25; 110 26; 111 344; 112 999; 
113 74; 114 5; 115 3; 116 1; 117 2; 
118 1; 119 3; 120 1; 121 88; 122 9; 
123 5; 124 1; 125 59; 126 6; 127 1; 
130 1; 132 1; 133 2; 134 1; 135 4; 
136 5; 137 2; 139 553; 140 55; 141 2; 
142 1; 145 1; 147 1; 148 1; 152 1; 
153 1; 154 245; 155 26; 156 1; 165 1; 
183 1; 191 1; 193 1; 207 16; 208 2; 
209 1; 225 1; 267 1; 281 4; 282 1; 
283 1; 327 1; 341 1; 355 1; 

