Name: 2-Cyclohexen-1-one, 3-methyl-6-(1-methylethenyl)-
InChIKey: SEZLYIWMVRUIKT-UHFFFAOYSA-N
Synon: p-Mentha-1,8-dien-3-one
Synon: Isopiperitenon
Synon: Isopiperitenone
Synon: 6-Isopropenyl-3-methyl-2-cyclohexen-1-one  #
Retention_index: SemiStdNP=1272/2/6 StdNP=1231/9/4 StdPolar=1865/0/8
Formula: C10H14O
MW: 150
ExactMass: 150.1044655
CAS#: 529-01-1;  NIST#: 21438
DB#: 51029
Num Peaks: 10
27 134; 39 313; 41 159; 53 120; 54 190; 
82 999; 91 93; 107 162; 135 173; 150 294; 

