Name: isopulegone
Formula: C10H16O
MW: 152
ExactMass: 152.120115
DB#: 21
Num Peaks: 96
39 42; 40 11; 41 201; 42 18; 43 143; 
44 3; 45 6; 50 8; 51 34; 52 8; 
53 123; 54 22; 55 66; 56 10; 57 7; 
59 2; 60 1; 61 10; 62 2; 63 8; 
64 1; 65 97; 66 27; 67 905; 68 156; 
69 111; 70 19; 71 3; 73 3; 74 1; 
75 1; 76 1; 77 225; 78 25; 79 328; 
80 40; 81 409; 82 59; 83 20; 84 7; 
85 1; 87 1; 89 2; 91 224; 92 23; 
93 952; 94 90; 95 310; 96 31; 97 15; 
98 2; 102 1; 103 3; 104 1; 105 20; 
106 3; 107 31; 108 47; 109 999; 110 105; 
111 8; 112 1; 115 4; 116 1; 117 6; 
118 1; 119 35; 120 4; 121 4; 122 1; 
123 918; 124 91; 125 5; 128 1; 129 1; 
131 1; 133 4; 134 1; 135 2; 137 277; 
138 26; 139 1; 145 2; 146 1; 147 1; 
150 1; 151 22; 152 46; 153 5; 193 1; 
207 3; 281 1; 387 1; 475 3; 476 1; 
477 1; 

