Name: Cyclohexanone, 5-methyl-2-(1-methylethenyl)-, trans-
InChIKey: RMIANEGNSBUGDJ-BDAKNGLRSA-N
Synon: p-Menth-8-en-3-one, trans-
Synon: trans-Isopulegone
Synon: Isopulegon
Synon: Isopulegone
Synon: 2-Isopropenyl-5-methylcyclohexanone  #
Retention_index: SemiStdNP=1177/15/11 StdNP=1155/2/5 StdPolar=1597/1/7
Formula: C10H16O
MW: 152
ExactMass: 152.120115
CAS#: 29606-79-9;  NIST#: 4818
DB#: 50164
Num Peaks: 65
15 17; 26 19; 27 318; 28 52; 29 182; 
31 7; 37 8; 38 25; 39 545; 40 143; 
41 760; 42 146; 43 182; 44 7; 45 6; 
50 28; 51 91; 52 59; 53 352; 54 85; 
55 284; 56 71; 57 17; 59 7; 62 7; 
63 28; 64 9; 65 94; 66 93; 67 965; 
68 601; 69 455; 70 65; 71 11; 75 5; 
77 105; 78 27; 79 160; 80 97; 81 999; 
82 408; 83 59; 84 17; 91 66; 92 15; 
94 76; 95 307; 96 72; 97 34; 105 17; 
106 5; 107 43; 108 204; 109 931; 110 134; 
111 18; 119 30; 121 16; 125 6; 137 296; 
138 31; 151 24; 152 615; 153 77; 154 6; 

