Name: limonene
Formula: C10H16
MW: 136
ExactMass: 136.1252
DB#: 10
Comments: rt=2.361
Num Peaks: 149
38 1; 39 137; 40 89; 41 326; 42 54; 
43 28; 44 4; 45 6; 49 1; 50 53; 
51 279; 52 60; 53 583; 54 45; 55 119; 
56 13; 57 11; 58 12; 59 3; 60 3; 
61 43; 62 24; 63 75; 64 15; 65 469; 
66 154; 67 999; 68 755; 69 125; 70 15; 
71 6; 72 1; 73 8; 74 12; 75 11; 
76 15; 77 770; 78 313; 79 874; 80 556; 
81 405; 82 69; 83 11; 84 3; 85 3; 
86 3; 87 9; 88 2; 89 39; 90 8; 
91 829; 92 772; 93 921; 94 827; 95 469; 
96 39; 97 7; 98 2; 101 3; 102 21; 
103 131; 104 34; 105 462; 106 132; 107 709; 
108 265; 109 28; 110 3; 111 3; 113 1; 
114 2; 115 97; 116 22; 117 64; 118 13; 
119 115; 120 22; 121 680; 122 133; 123 9; 
124 1; 126 1; 127 5; 128 12; 129 7; 
130 3; 131 7; 132 9; 133 6; 134 16; 
135 13; 136 283; 137 37; 138 3; 141 2; 
142 1; 143 3; 144 2; 145 2; 146 1; 
147 2; 148 1; 149 1; 152 1; 153 1; 
154 1; 155 1; 156 1; 157 1; 158 1; 
159 1; 160 1; 161 1; 165 1; 167 1; 
168 1; 169 1; 170 1; 171 1; 172 1; 
179 1; 181 1; 182 1; 183 1; 184 1; 
185 1; 191 2; 193 2; 194 1; 195 1; 
207 13; 208 2; 209 2; 249 1; 253 1; 
265 2; 267 2; 271 1; 281 8; 282 2; 
283 1; 325 1; 327 1; 341 5; 342 1; 
343 1; 345 1; 355 1; 429 1; 

