Name: Linalool
Related_CAS#: 11024-20-7; 22564-99-4
InChIKey: CDOSHBSSFJOMGT-UHFFFAOYSA-N
Synon: 1,6-Octadien-3-ol, 3,7-dimethyl-
Synon: .beta.-Linalool
Synon: Linalol
Synon: Linalyl alcohol
Synon: 2,6-Dimethyl-2,7-octadien-6-ol
Synon: allo-Ocimenol
Synon: 2,6-Dimethyl-2,7-octadiene-6-ol
Synon: 2,6-Dimethylocta-2,7-dien-6-ol
Retention_index: SemiStdNP=1099/2/976 StdNP=1086/3/646 StdPolar=1547/7/791
Formula: C10H18O
MW: 154
ExactMass: 154.135765
CAS#: 78-70-6;  NIST#: 352637
DB#: 39161
Comments: NIST Mass Spectrometry Data Center
Num Peaks: 96
15 6; 19 1; 26 7; 27 99; 28 16; 
29 63; 30 2; 31 12; 37 2; 38 8; 
39 179; 40 42; 41 564; 42 58; 43 598; 
44 19; 45 17; 46 1; 47 1; 48 1; 
49 1; 50 12; 51 37; 52 18; 53 153; 
54 27; 55 637; 56 105; 57 45; 58 27; 
59 41; 60 2; 61 1; 62 4; 63 9; 
64 2; 65 36; 66 14; 67 206; 68 125; 
69 426; 70 54; 71 999; 72 73; 73 7; 
74 1; 75 1; 77 61; 78 10; 79 122; 
80 321; 81 119; 82 59; 83 177; 84 49; 
85 16; 86 19; 87 2; 89 1; 91 100; 
92 151; 93 760; 94 102; 95 32; 96 84; 
97 26; 98 9; 99 3; 103 5; 104 1; 
105 53; 106 13; 107 74; 108 20; 109 68; 
110 8; 111 36; 112 3; 115 1; 117 1; 
119 11; 121 232; 122 23; 123 4; 124 1; 
125 4; 126 1; 127 6; 128 1; 135 1; 
136 82; 137 10; 138 1; 139 22; 140 2; 
154 4; 

