Name: linalool
Formula: C10H18O
MW: 154
ExactMass: 154.135765
DB#: 14
Comments: rt=2.580
Num Peaks: 162
38 1; 39 112; 40 16; 41 692; 42 54; 
43 797; 44 34; 45 15; 49 1; 50 21; 
51 87; 52 18; 53 295; 54 33; 55 801; 
56 160; 57 91; 58 38; 59 110; 60 4; 
61 31; 62 7; 63 19; 64 3; 65 215; 
66 48; 67 779; 68 248; 69 634; 70 72; 
71 927; 72 175; 73 23; 74 3; 75 4; 
76 4; 77 642; 78 93; 79 757; 80 814; 
81 618; 82 163; 83 252; 84 61; 85 41; 
86 25; 87 3; 88 1; 89 7; 90 2; 
91 818; 92 650; 93 999; 94 484; 95 156; 
96 275; 97 76; 98 30; 99 10; 101 1; 
102 4; 103 58; 104 12; 105 433; 106 73; 
107 368; 108 118; 109 366; 110 40; 111 139; 
112 13; 113 2; 115 15; 116 5; 117 18; 
118 5; 119 88; 120 19; 121 696; 122 103; 
123 18; 124 4; 125 27; 126 4; 127 7; 
128 5; 129 5; 130 4; 131 5; 132 4; 
133 5; 134 5; 135 10; 136 142; 137 21; 
138 3; 139 65; 140 8; 141 3; 142 2; 
143 3; 144 2; 145 2; 146 2; 147 2; 
148 1; 149 1; 150 1; 152 1; 153 1; 
154 10; 155 2; 156 1; 157 2; 158 2; 
159 2; 160 1; 161 1; 162 1; 163 1; 
165 2; 166 1; 167 1; 168 1; 169 1; 
170 1; 171 1; 173 1; 179 1; 180 1; 
181 1; 182 1; 183 1; 184 1; 185 1; 
191 2; 193 2; 194 1; 197 1; 207 11; 
208 3; 209 1; 221 1; 249 1; 251 1; 
265 1; 267 3; 268 1; 269 1; 271 1; 
281 8; 282 2; 283 1; 325 1; 327 2; 
341 4; 342 1; 343 1; 345 1; 355 2; 
419 1; 429 1; 

