Name: Cyclohexanol, 5-methyl-2-(1-methylethyl)-, (1.alpha.,2.beta.,5.alpha.)-(.+/-.)-
InChIKey: NOOLISFMXDJSKH-UHFFFAOYSA-N
Synon: Menthol, (.+/-.)-
Synon: (.+/-.)-Menthol
Synon: DL-Menthol
Synon: Menthol, cis-1,3,trans-1,4-(.+/-.)-
Synon: Cyclohexanol, 5-methyl-2-(1-methylethyl)-, (1.alpha.,2.beta.,5.alpha.)-(.+-.)-
Synon: Cyclohexanol, 5-methyl-2-(1-methylethyl)-,
Synon: 4-Isopropyl-1-methylcyclohexan-3-ol
Synon: 3-p-Menthol
Synon: dl-3-p-Menthanol
Formula: C10H20O
MW: 156
ExactMass: 156.151415
CAS#: 15356-70-4;  NIST#: 72991
DB#: 38982
Comments: RADIAN CORP
Num Peaks: 58
14 2; 27 88; 28 34; 29 102; 31 25; 
32 10; 39 126; 40 26; 41 358; 42 55; 
43 269; 44 41; 45 19; 51 15; 52 2; 
53 89; 54 41; 55 388; 56 147; 57 265; 
58 23; 59 11; 65 28; 66 9; 67 405; 
68 126; 69 325; 70 129; 71 999; 72 53; 
73 10; 77 39; 78 2; 79 75; 80 120; 
81 894; 82 383; 83 139; 84 34; 85 102; 
86 34; 91 22; 93 61; 94 73; 95 798; 
96 278; 97 57; 99 38; 109 137; 110 73; 
111 17; 112 9; 113 7; 123 356; 124 34; 
137 2; 138 133; 139 17; 

