Name: dl-menthol
Formula: C10H20O
MW: 156
ExactMass: 156.151415
DB#: 26
Num Peaks: 81
39 56; 40 6; 41 305; 42 34; 43 213; 
44 10; 45 10; 50 10; 51 35; 52 10; 
53 152; 54 43; 55 437; 56 133; 57 174; 
58 27; 59 15; 62 2; 63 8; 64 1; 
65 92; 66 24; 67 805; 68 157; 69 259; 
70 71; 71 768; 72 60; 73 9; 74 1; 
75 1; 76 1; 77 126; 78 19; 79 265; 
80 245; 81 999; 82 393; 83 108; 84 25; 
85 117; 86 13; 87 2; 89 1; 91 81; 
92 9; 93 124; 94 136; 95 840; 96 267; 
97 45; 98 3; 99 30; 100 2; 103 2; 
105 6; 107 8; 108 3; 109 200; 110 69; 
111 11; 112 9; 113 9; 114 1; 115 1; 
117 1; 119 1; 121 7; 122 1; 123 427; 
124 50; 125 3; 136 1; 137 9; 138 92; 
139 12; 140 1; 141 2; 154 2; 155 1; 
207 1; 

