Name: menthone
Formula: C10H18O
MW: 154
ExactMass: 154.135765
DB#: 23
Num Peaks: 92
38 1; 39 110; 40 24; 41 604; 42 87; 
43 182; 44 6; 45 3; 49 1; 50 27; 
51 91; 52 25; 53 231; 54 58; 55 761; 
56 370; 57 88; 58 52; 59 13; 61 1; 
62 6; 63 24; 64 4; 65 130; 66 34; 
67 438; 68 110; 69 682; 70 553; 71 115; 
72 13; 73 2; 74 2; 75 1; 76 2; 
77 191; 78 32; 79 343; 80 48; 81 241; 
82 36; 83 624; 84 790; 85 101; 86 7; 
89 3; 90 1; 91 123; 92 19; 93 322; 
94 183; 95 622; 96 77; 97 899; 98 231; 
99 20; 100 1; 102 1; 103 4; 105 36; 
106 5; 107 79; 108 15; 109 60; 110 68; 
111 712; 112 999; 113 203; 114 13; 115 2; 
117 2; 119 8; 120 1; 121 246; 122 26; 
123 15; 124 1; 125 197; 126 20; 127 1; 
135 5; 136 19; 137 5; 139 918; 140 185; 
141 13; 152 2; 153 6; 154 632; 155 99; 
156 7; 207 1; 

