Name: Methylisobutanol
Formula: C5H12O
MW: 88
ExactMass: 88.088815
DB#: 41
Comments: rt=3.347
Num Peaks: 33
27 7; 28 7; 29 185; 30 4; 31 15; 
39 44; 40 15; 41 762; 42 259; 43 27; 
44 1; 45 32; 46 1; 49 1; 50 12; 
51 15; 52 3; 53 45; 54 17; 55 776; 
56 999; 57 838; 58 46; 59 23; 62 1; 
63 1; 65 3; 67 7; 68 1; 69 15; 
70 427; 71 27; 87 2; 

