Name: methylbutanal
Formula: C5H10O
MW: 86
ExactMass: 86.073165
DB#: 39
Comments: rt=2.719
Num Peaks: 37
27 6; 28 9; 29 110; 30 6; 31 2; 
39 11; 40 2; 41 335; 42 12; 43 24; 
44 6; 45 2; 49 2; 50 17; 51 17; 
52 3; 53 32; 54 3; 55 56; 56 54; 
57 638; 58 999; 59 37; 60 2; 61 1; 
62 1; 63 1; 65 3; 67 13; 68 8; 
69 5; 71 52; 72 2; 83 1; 84 1; 
85 1; 86 1; 

