Name: methylbutene
Formula: C5H10
MW: 70
ExactMass: 70.0782504
DB#: 40
Comments: rt=1.735
Num Peaks: 28
27 8; 29 93; 30 2; 39 45; 40 1; 
41 24; 42 47; 43 5; 49 2; 50 24; 
51 29; 52 7; 53 117; 54 19; 55 999; 
56 46; 57 2; 60 1; 61 4; 62 8; 
63 8; 65 13; 66 3; 67 29; 68 3; 
69 24; 70 528; 71 30; 

