Name: myrcene
Formula: C10H16
MW: 136
ExactMass: 136.1252
DB#: 9
Comments: rt=2.166
Num Peaks: 136
39 47; 40 4; 41 670; 42 25; 43 19; 
44 7; 45 7; 50 15; 51 72; 52 14; 
53 72; 54 7; 55 53; 56 8; 57 9; 
58 1; 60 3; 61 52; 62 6; 63 18; 
64 2; 65 126; 66 26; 67 340; 68 39; 
69 439; 70 28; 71 5; 73 9; 74 2; 
75 3; 76 3; 77 658; 78 90; 79 478; 
80 237; 81 44; 82 18; 83 8; 84 2; 
85 3; 87 2; 88 1; 89 6; 90 2; 
91 879; 92 335; 93 999; 94 197; 95 21; 
96 5; 97 5; 98 2; 101 1; 102 3; 
103 19; 104 7; 105 70; 106 14; 107 121; 
108 25; 109 6; 110 2; 111 2; 115 16; 
116 5; 117 13; 118 4; 119 16; 120 5; 
121 154; 122 15; 123 3; 124 1; 127 1; 
128 4; 129 3; 130 2; 131 3; 132 2; 
133 2; 134 2; 135 3; 136 29; 137 4; 
141 2; 142 1; 143 2; 144 2; 145 2; 
146 1; 147 1; 149 1; 152 1; 153 1; 
154 1; 155 1; 156 1; 157 1; 158 1; 
159 1; 161 1; 162 1; 165 1; 166 1; 
167 1; 168 1; 170 1; 171 1; 172 1; 
180 1; 182 1; 191 2; 193 1; 207 10; 
208 2; 209 1; 249 1; 251 1; 265 1; 
267 3; 268 1; 269 1; 271 1; 281 8; 
282 2; 283 1; 325 1; 327 1; 341 4; 
342 1; 343 1; 345 1; 355 2; 356 1; 
429 1; 

