Name: neoisomenthol
Formula: C10H20O
MW: 156
ExactMass: 156.151415
DB#: 28
Num Peaks: 90
38 1; 39 131; 40 15; 41 562; 42 90; 
43 442; 44 19; 45 25; 46 1; 50 20; 
51 90; 52 19; 53 298; 54 105; 55 691; 
56 274; 57 309; 58 71; 59 29; 60 1; 
61 1; 62 4; 63 17; 64 2; 65 186; 
66 55; 67 923; 68 313; 69 496; 70 165; 
71 945; 72 128; 73 18; 74 1; 75 1; 
76 1; 77 262; 78 38; 79 496; 80 329; 
81 999; 82 607; 83 193; 84 62; 85 297; 
86 36; 87 7; 89 4; 90 1; 91 162; 
92 17; 93 208; 94 262; 95 959; 96 482; 
97 90; 98 7; 99 81; 100 7; 101 1; 
102 1; 103 5; 104 1; 105 13; 106 2; 
107 16; 108 10; 109 499; 110 152; 111 25; 
112 31; 113 34; 114 4; 115 3; 117 2; 
119 3; 121 14; 122 2; 123 611; 124 88; 
125 6; 136 1; 137 13; 138 169; 139 26; 
140 1; 141 5; 154 6; 155 3; 207 1; 

