Name: Cyclohexanol, 5-methyl-2-(1-methylethyl)-, (1.alpha.,2.alpha.,5.beta.)-
InChIKey: NOOLISFMXDJSKH-UHFFFAOYSA-N
Synon: Menthol, trans-1,3,trans-1,4-
Synon: Neo-Menthol
Synon: Neomenthol
Synon: 2-Isopropyl-5-methylcyclohexanol  #
Retention_index: SemiStdNP=1168/4/10 StdNP=1157/3/22 StdPolar=1580/20/14
Formula: C10H20O
MW: 156
ExactMass: 156.151415
CAS#: 491-01-0;  NIST#: 38796
DB#: 39170
Comments: B.WILLHALM FIRMENICH & CIE, GENEVA, SWITZERLAND
Num Peaks: 48
27 200; 29 180; 31 50; 39 110; 41 360; 
42 60; 43 300; 45 30; 53 50; 54 30; 
55 350; 56 170; 57 210; 58 20; 59 10; 
67 180; 68 120; 69 260; 70 100; 71 999; 
72 50; 73 10; 77 20; 79 30; 80 50; 
81 420; 82 250; 83 80; 84 20; 85 70; 
86 40; 91 10; 93 20; 94 30; 95 540; 
96 190; 97 30; 99 30; 109 80; 110 50; 
111 10; 112 20; 113 10; 123 170; 124 20; 
138 230; 139 30; 156 3; 

