Name: neomenthol
Formula: C10H20O
MW: 156
ExactMass: 156.151415
DB#: 25
Num Peaks: 91
38 1; 39 144; 40 17; 41 618; 42 113; 
43 538; 44 29; 45 32; 46 1; 50 24; 
51 107; 52 25; 53 372; 54 119; 55 755; 
56 360; 57 401; 58 101; 59 47; 60 2; 
61 1; 62 6; 63 22; 64 3; 65 225; 
66 67; 67 937; 68 410; 69 574; 70 217; 
71 994; 72 194; 73 26; 74 2; 75 2; 
76 2; 77 310; 78 59; 79 570; 80 393; 
81 999; 82 701; 83 263; 84 87; 85 356; 
86 54; 87 11; 89 5; 90 1; 91 211; 
92 23; 93 289; 94 330; 95 987; 96 711; 
97 147; 98 11; 99 117; 100 11; 101 1; 
102 1; 103 7; 104 2; 105 17; 106 2; 
107 23; 108 13; 109 523; 110 231; 111 34; 
112 24; 113 51; 114 6; 115 3; 117 2; 
119 5; 121 19; 122 3; 123 696; 124 123; 
125 8; 136 2; 137 25; 138 375; 139 58; 
140 3; 141 6; 154 5; 155 7; 156 1; 
207 1; 

