Name: o-cimene
Formula: C10H16
MW: 136
ExactMass: 136.1252
DB#: 1
Comments: rt=2.341
Num Peaks: 205
39 12; 40 1; 41 28; 42 21; 43 48; 
44 14; 45 21; 50 7; 51 23; 52 9; 
53 9; 54 8; 55 99; 56 18; 57 24; 
58 5; 59 1; 60 9; 61 102; 62 7; 
63 16; 64 8; 65 48; 66 11; 67 53; 
68 12; 69 27; 70 30; 71 16; 72 1; 
73 18; 74 4; 75 7; 76 6; 77 80; 
78 40; 79 64; 80 20; 81 36; 82 17; 
83 17; 84 7; 85 7; 86 2; 87 5; 
88 3; 89 24; 90 5; 91 390; 92 37; 
93 40; 94 14; 95 22; 96 11; 97 10; 
98 6; 99 2; 101 2; 102 14; 103 39; 
104 27; 105 48; 106 15; 107 13; 108 8; 
109 11; 110 4; 111 5; 112 1; 113 1; 
114 2; 115 92; 116 25; 117 196; 118 31; 
119 999; 120 91; 121 11; 122 6; 123 5; 
124 2; 125 2; 126 2; 127 5; 128 14; 
129 12; 130 8; 131 10; 132 7; 133 10; 
134 137; 135 22; 136 4; 137 2; 138 2; 
139 1; 140 1; 141 6; 142 4; 143 7; 
144 5; 145 6; 146 4; 147 4; 148 3; 
149 2; 150 2; 151 1; 152 2; 153 3; 
154 2; 155 4; 156 3; 157 4; 158 4; 
159 2; 160 2; 161 2; 162 2; 163 2; 
164 1; 165 3; 166 1; 167 4; 168 3; 
169 4; 170 2; 171 1; 172 1; 173 2; 
174 2; 175 1; 176 1; 177 1; 178 2; 
179 2; 180 1; 181 3; 182 1; 183 2; 
184 1; 185 2; 186 1; 187 1; 188 1; 
191 5; 192 1; 193 5; 194 1; 195 2; 
196 1; 197 2; 198 1; 199 1; 201 1; 
202 1; 203 1; 205 1; 206 1; 207 32; 
208 7; 209 5; 210 1; 211 1; 212 1; 
214 1; 215 1; 219 1; 221 1; 224 1; 
225 1; 227 1; 234 1; 236 1; 249 3; 
251 1; 253 1; 265 2; 266 1; 267 5; 
268 2; 269 1; 271 2; 281 15; 282 5; 
283 2; 285 1; 289 1; 325 2; 327 2; 
328 1; 329 1; 341 4; 342 1; 343 2; 
345 2; 355 2; 356 1; 359 1; 363 1; 
401 1; 415 1; 419 1; 429 1; 431 1; 

