Name: 1,3-pentadiene
Formula: C5H8
MW: 68
ExactMass: 68.0626
DB#: 34
Comments: rt=1,844
Num Peaks: 32
27 14; 39 17; 40 5; 41 52; 42 2; 
44 1; 49 4; 50 31; 51 45; 52 16; 
53 305; 54 14; 55 2; 56 2; 57 1; 
60 4; 61 25; 62 36; 63 44; 64 5; 
65 224; 66 59; 67 999; 68 628; 69 35; 
70 2; 77 1; 79 1; 81 1; 91 1; 
105 1; 207 1; 

