Name: Pulegone
Related_CAS#: 90449-51-7
InChIKey: NZGWDASTMWDZIW-UHFFFAOYSA-N
Synon: Cyclohexanone, 5-methyl-2-(1-methylethylidene)-, (R)-
Synon: p-Menth-4(8)-en-3-one, (R)-(+)-
Synon: (+)-(R)-Pulegone
Synon: (+)-Pulegone
Synon: (R)-(+)-Pulegone
Synon: d-p-Menth-4(8)-en-3-one
Synon: d-Pulegone
Synon: p-Menth-4(8)-en-3-one
Retention_index: SemiStdNP=1237/3/81 StdNP=1219/6/59 StdPolar=1661/1/41
Formula: C10H16O
MW: 152
ExactMass: 152.120115
CAS#: 89-82-7;  NIST#: 227961
DB#: 142121
Comments: Japan AIST/NIMC Database- Spectrum MS-IW-1347
Num Peaks: 117
15 5; 26 4; 27 90; 28 16; 29 67; 
30 1; 31 9; 32 1; 37 1; 38 8; 
39 169; 40 41; 41 347; 42 48; 43 168; 
44 8; 45 7; 46 2; 47 1; 50 11; 
51 40; 52 21; 53 126; 54 44; 55 214; 
56 58; 57 31; 58 13; 59 70; 60 5; 
61 3; 62 4; 63 12; 64 4; 65 53; 
66 27; 67 696; 68 211; 69 305; 70 67; 
71 36; 72 5; 73 2; 74 2; 75 2; 
76 1; 77 69; 78 13; 79 137; 80 104; 
81 940; 82 372; 83 112; 84 40; 85 9; 
86 4; 87 1; 89 3; 90 1; 91 74; 
92 21; 93 133; 94 46; 95 232; 96 54; 
97 68; 98 16; 99 5; 100 1; 101 13; 
102 2; 103 5; 104 2; 105 27; 106 7; 
107 56; 108 39; 109 545; 110 113; 111 48; 
112 114; 113 10; 114 1; 115 5; 116 1; 
117 7; 118 1; 119 41; 120 7; 121 45; 
122 10; 123 70; 124 41; 125 14; 126 3; 
128 1; 129 1; 131 2; 132 1; 133 9; 
134 8; 135 21; 136 15; 137 318; 138 40; 
139 5; 145 4; 146 4; 147 6; 148 4; 
149 5; 150 31; 151 18; 152 999; 153 156; 
154 45; 155 6; 

