Name: pulegone
Formula: C10H16O
MW: 152
ExactMass: 152.120115
DB#: 22
Num Peaks: 103
39 37; 40 5; 41 145; 42 9; 43 23; 
44 1; 45 2; 50 6; 51 28; 52 7; 
53 61; 54 16; 55 46; 56 6; 57 6; 
59 3; 60 1; 61 8; 62 3; 63 10; 
64 1; 65 91; 66 22; 67 823; 68 86; 
69 60; 70 10; 71 2; 73 2; 74 1; 
75 1; 76 1; 77 120; 78 17; 79 268; 
80 152; 81 999; 82 137; 83 13; 84 2; 
85 1; 89 3; 90 1; 91 111; 92 12; 
93 41; 94 23; 95 99; 96 13; 97 8; 
98 2; 102 1; 103 6; 104 2; 105 22; 
106 4; 107 30; 108 6; 109 417; 110 46; 
111 4; 115 7; 116 1; 117 7; 118 1; 
119 35; 120 5; 121 12; 122 3; 123 10; 
124 158; 125 15; 127 1; 128 3; 129 9; 
130 1; 131 1; 133 2; 134 6; 135 4; 
136 1; 137 304; 138 29; 139 2; 145 1; 
146 1; 149 3; 150 3; 151 5; 152 553; 
153 60; 154 4; 165 1; 175 2; 178 1; 
191 1; 202 1; 204 1; 205 1; 206 4; 
207 5; 208 1; 281 1; 

