Name: sabinene
Formula: C10H16
MW: 136
ExactMass: 136.1252
DB#: 6
Comments: rt=2.152, rt=2.95
Num Peaks: 137
38 1; 39 94; 40 7; 41 302; 42 16; 
43 23; 44 7; 45 8; 49 1; 50 43; 
51 321; 52 46; 53 96; 54 9; 55 68; 
56 10; 57 12; 58 8; 59 1; 60 4; 
61 60; 62 19; 63 72; 64 11; 65 407; 
66 75; 67 245; 68 23; 69 189; 70 18; 
71 6; 73 8; 74 9; 75 9; 76 12; 
77 969; 78 438; 79 857; 80 610; 81 104; 
82 22; 83 9; 84 2; 85 3; 86 3; 
87 8; 88 1; 89 38; 90 7; 91 991; 
92 640; 93 999; 94 527; 95 53; 96 8; 
97 7; 98 3; 99 1; 101 1; 102 15; 
103 87; 104 24; 105 215; 106 36; 107 288; 
108 100; 109 12; 110 3; 111 3; 114 1; 
115 58; 116 13; 117 33; 118 7; 119 47; 
120 13; 121 442; 122 47; 123 4; 124 1; 
125 1; 127 2; 128 7; 129 5; 130 3; 
131 4; 132 3; 133 3; 134 6; 135 6; 
136 342; 137 36; 138 3; 141 2; 142 1; 
143 2; 144 2; 145 2; 146 2; 147 2; 
148 1; 149 1; 150 1; 152 1; 153 1; 
154 1; 155 1; 156 1; 157 2; 158 1; 
159 1; 160 1; 165 1; 167 1; 168 1; 
169 1; 170 1; 171 1; 178 1; 179 1; 
180 1; 181 1; 182 1; 185 1; 191 1; 
193 1; 195 1; 207 8; 208 1; 209 1; 
265 1; 267 1; 281 4; 282 2; 341 1; 
345 1; 355 1; 

