Name: Benzene, (1-methylpropyl)-
InChIKey: ZJMWRROPUADPEA-UHFFFAOYSA-N
Synon: Benzene, sec-butyl-
Synon: sec-Butylbenzene
Synon: 2-Phenylbutane
Synon: (1-Methylpropyl)benzene
Synon: Secondary butylbenzene
Synon: UN 2709
Synon: s-Butylbenzene
Synon: .alpha.-methylpropylbenzene
Retention_index: SemiStdNP=994/11/27 StdNP=1000/5/70 StdPolar=1250/23/19
Formula: C10H14
MW: 134
ExactMass: 134.10955
CAS#: 135-98-8;  NIST#: 228188
DB#: 81115
Comments: Japan AIST/NIMC Database- Spectrum MS-NW-4626
Num Peaks: 63
15 2; 26 3; 27 33; 28 1; 29 16; 
37 1; 38 3; 39 32; 40 2; 41 26; 
42 1; 43 2; 44 1; 49 1; 50 14; 
51 45; 52 10; 53 9; 54 1; 55 7; 
56 2; 57 4; 58 2; 61 1; 62 4; 
63 13; 64 4; 65 21; 66 3; 74 6; 
75 4; 76 5; 77 96; 78 32; 79 77; 
80 5; 86 1; 87 1; 89 7; 90 2; 
91 138; 92 11; 101 1; 102 8; 103 52; 
104 27; 105 999; 106 91; 107 3; 115 14; 
116 4; 117 15; 118 4; 119 21; 120 4; 
128 1; 129 1; 131 2; 132 5; 133 1; 
134 179; 135 19; 136 1; 

