Name: sec-butylbenzene
Formula: C10H14
MW: 134
ExactMass: 134.10955
DB#: 18
Comments: rt=2.296
Num Peaks: 57
39 5; 41 2; 43 2; 44 1; 50 8; 
51 36; 52 5; 53 2; 55 3; 56 1; 
57 3; 58 1; 62 3; 63 12; 64 3; 
65 27; 66 2; 67 2; 69 1; 70 1; 
71 2; 74 4; 75 4; 76 7; 77 157; 
78 53; 79 187; 80 13; 81 1; 83 1; 
85 1; 87 1; 89 12; 90 2; 91 187; 
92 17; 93 2; 101 1; 102 14; 103 141; 
104 48; 105 999; 106 128; 107 5; 115 37; 
116 6; 117 19; 118 3; 119 12; 120 1; 
127 1; 128 2; 129 1; 131 1; 134 99; 
135 11; 207 1; 

