Name: Styrene
Formula: C8H8
MW: 104
ExactMass: 104.0626
CAS#: 100-42-5
DB#: 33
Comments: rt=1.785
Num Peaks: 67
37 6; 38 9; 39 95; 40 3; 41 15; 
43 2; 44 1; 48 1; 49 53; 50 509; 
51 766; 52 319; 53 37; 54 3; 55 3; 
56 21; 57 71; 58 3; 60 11; 61 114; 
62 250; 63 474; 64 54; 65 69; 66 5; 
67 1; 72 4; 73 105; 74 475; 75 355; 
76 450; 77 999; 78 821; 79 430; 80 16; 
83 1; 84 7; 85 27; 86 59; 87 113; 
88 12; 89 202; 90 19; 91 15; 92 5; 
96 2; 97 27; 98 118; 99 25; 100 4; 
101 98; 102 683; 103 775; 104 914; 105 649; 
106 55; 107 1; 115 1; 128 1; 133 1; 
165 1; 166 1; 191 1; 207 10; 208 2; 
209 1; 281 1; 

