Name: terpineol
Formula: C10H18O
MW: 154
ExactMass: 154.135765
DB#: 16
Comments: rt=2.954
Num Peaks: 169
38 1; 39 134; 40 20; 41 391; 42 24; 
43 348; 44 15; 45 15; 49 1; 50 23; 
51 175; 52 30; 53 250; 54 81; 55 286; 
56 24; 57 31; 58 17; 59 902; 60 100; 
61 30; 62 11; 63 36; 64 7; 65 316; 
66 84; 67 793; 68 331; 69 100; 70 16; 
71 286; 72 18; 73 13; 74 6; 75 6; 
76 8; 77 750; 78 194; 79 819; 80 462; 
81 899; 82 208; 83 24; 84 7; 85 12; 
86 1; 87 4; 88 1; 89 22; 90 5; 
91 831; 92 828; 93 999; 94 564; 95 639; 
96 171; 97 32; 98 6; 99 1; 101 1; 
102 9; 103 76; 104 16; 105 499; 106 101; 
107 550; 108 425; 109 54; 110 25; 111 13; 
112 2; 114 1; 115 35; 116 9; 117 33; 
118 7; 119 133; 120 27; 121 949; 122 389; 
123 41; 124 5; 125 2; 126 1; 127 3; 
128 7; 129 7; 130 3; 131 5; 132 10; 
133 5; 134 10; 135 18; 136 842; 137 269; 
138 21; 139 371; 140 43; 141 4; 142 2; 
143 3; 144 2; 145 3; 146 1; 147 3; 
148 1; 149 1; 150 1; 151 1; 152 2; 
153 1; 154 1; 155 1; 156 2; 157 2; 
158 1; 159 1; 160 1; 161 1; 165 2; 
167 1; 168 1; 169 1; 170 1; 171 1; 
173 1; 175 1; 177 1; 178 1; 179 1; 
180 1; 181 1; 182 1; 183 1; 184 1; 
185 1; 191 3; 192 1; 193 2; 194 1; 
195 1; 198 1; 207 17; 208 3; 209 2; 
211 1; 213 1; 249 1; 265 2; 267 3; 
268 1; 271 1; 281 7; 282 1; 283 1; 
325 3; 326 1; 327 2; 341 12; 342 4; 
343 3; 344 1; 345 2; 355 2; 363 1; 
419 1; 429 4; 430 2; 431 1; 

