Name: terpinolene
Formula: C10H16
MW: 136
ExactMass: 136.1252
DB#: 13
Comments: rt=2.566
Num Peaks: 169
38 1; 39 109; 40 12; 41 111; 42 10; 
43 103; 44 5; 45 5; 49 1; 50 54; 
51 332; 52 56; 53 162; 54 14; 55 146; 
56 15; 57 16; 58 24; 59 5; 60 4; 
61 34; 62 29; 63 110; 64 27; 65 462; 
66 78; 67 426; 68 47; 69 25; 70 10; 
71 8; 72 1; 73 13; 74 18; 75 20; 
76 22; 77 894; 78 382; 79 881; 80 422; 
81 131; 82 15; 83 8; 84 3; 85 4; 
86 7; 87 20; 88 4; 89 71; 90 13; 
91 989; 92 654; 93 999; 94 500; 95 57; 
96 8; 97 5; 98 3; 99 2; 101 5; 
102 40; 103 380; 104 81; 105 815; 106 328; 
107 648; 108 424; 109 41; 110 4; 111 3; 
112 1; 113 2; 114 3; 115 237; 116 43; 
117 192; 118 31; 119 473; 120 104; 121 956; 
122 420; 123 26; 124 2; 125 1; 126 3; 
127 10; 128 21; 129 12; 130 5; 131 16; 
132 36; 133 17; 134 60; 135 45; 136 883; 
137 338; 138 22; 139 1; 141 2; 142 2; 
143 2; 144 2; 145 3; 146 2; 147 1; 
148 1; 149 1; 150 1; 151 1; 152 1; 
153 1; 154 1; 155 1; 156 1; 157 2; 
158 1; 159 1; 160 1; 161 1; 163 1; 
165 1; 166 1; 167 1; 168 1; 169 1; 
170 1; 171 1; 178 1; 180 1; 181 1; 
182 1; 185 1; 191 2; 193 2; 197 1; 
207 15; 208 3; 209 2; 221 1; 249 2; 
251 2; 253 1; 265 2; 267 4; 268 1; 
269 1; 271 1; 281 10; 282 2; 283 2; 
285 1; 325 3; 326 1; 327 3; 328 1; 
329 1; 341 8; 342 3; 343 2; 345 2; 
355 3; 356 1; 357 1; 359 1; 415 1; 
419 1; 429 2; 430 1; 431 1; 

