Name: 2-Cyclohexen-1-ol, 3-methyl-6-(1-methylethyl)-, trans-
Related_CAS#: 75363-65-4
InChIKey: HPOHAUWWDDPHRS-VHSXEESVSA-N
Synon: (1R,6R)-6-Isopropyl-3-methylcyclohex-2-enol, rel-
Synon: p-Menth-1-en-3-ol, trans-
Synon: trans-p-Menth-1-en-3-ol
Synon: trans-Piperitol
Synon: 6-Isopropyl-3-methyl-2-cyclohexen-1-ol, (E)-
Synon: E-Piperitol
Synon: trans-3-methyl-6-(1-methylethyl)-2-cyclohexen-1-ol
Synon: 2-Cyclohexen-1-ol, 3-methyl-6-(1-methylethyl)-, (1R,6R)-rel-
Retention_index: SemiStdNP=1208/3/86 StdNP=1192/5/42 StdPolar=1692/15/34
Formula: C10H18O
MW: 154
ExactMass: 154.135765
CAS#: 16721-39-4;  NIST#: 107132
DB#: 53524
Comments: N.W. Davies, Centr. Sci. Lab., Univ. Tasmania, Hobart, Australia
Num Peaks: 49
27 137; 29 102; 31 16; 39 145; 41 273; 
42 25; 43 251; 51 31; 52 15; 53 66; 
54 13; 55 179; 56 86; 57 39; 59 30; 
65 35; 66 11; 67 56; 68 13; 69 97; 
70 19; 71 87; 77 121; 78 25; 79 83; 
80 17; 81 61; 82 26; 83 263; 84 999; 
85 62; 91 96; 92 45; 93 249; 94 39; 
95 46; 96 11; 97 47; 99 11; 105 19; 
107 13; 109 13; 111 94; 112 50; 121 59; 
136 51; 139 243; 140 23; 154 62; 

